# Solution for model r5_t9_m8_8
# Finished Task: 7 / 9
# Makespan: 504.0, Total Distance: 247.0, Total Time: 1.0358
# R O S F
0 0 9 40.0 40.0
1 1 10 47.0 47.0
2 2 6 76.0 76.0
3 3 5 84.0 84.0
4 4 -1 74.0 74.0
5 3 7 171.0 191.0
6 2 -1 296.0 328.0
7 3 8 265.0 296.0
8 3 11 430.0 457.0
9 0 -1 174.0 205.0
10 1 -1 366.0 392.0
11 3 -1 479.0 504.0
12 -1 -1 504.0 538.0
13 -1 -1 538.0 573.0
